N = 19;

TravelTimes = array2d(0..N, 0..N, [|
   0,  0,   0,   0,   0,   0,   0,   0,   0,   0,   0,   0,  0,   0,   0,   0,  0,   0,  0,  0 |
  74,  0, 103, 103, 103, 103, 103, 103, 103, 103, 103, 103, 92, 103, 103, 103, 84, 103, 87, 99 |
  64, 93,   0,  93,  93,  93,  93,  93,  93,  93,  93,  93, 82,  93,  93,  93, 74,  93, 74, 89 |
  45, 63,  63,   0,  63,  63,  63,  63,  63,  63,  63,  63, 63,  63,  63,  63, 69,  63, 69, 55 |
  66, 95,  95,  95,   0,  95,  95,  95,  95,  95,  95,  95, 84,  95,  95,  95, 81,  95, 76, 91 |
  49, 72,  72,  72,  72,   0,  72,  72,  72,  72,  72,  72, 63,  72,  72,  72, 72,  72, 72, 61 |
  47, 68,  68,  68,  68,  68,   0,  68,  68,  68,  68,  68, 62,  68,  68,  68, 70,  68, 70, 59 |
  49, 72,  72,  72,  72,  72,  72,   0,  72,  72,  72,  72, 61,  72,  72,  72, 70,  72, 70, 64 |
  50, 73,  73,  73,  73,  73,  73,  73,   0,  73,  73,  73, 62,  73,  73,  73, 71,  73, 71, 65 |
  64, 92,  92,  92,  92,  92,  92,  92,  92,   0,  92,  92, 80,  92,  92,  92, 70,  92, 77, 88 |
  51, 75,  75,  75,  75,  75,  75,  75,  75,  75,   0,  75, 57,  75,  75,  75, 67,  75, 67, 71 |
  51, 76,  76,  76,  76,  76,  76,  76,  76,  76,  76,   0, 61,  76,  76,  76, 66,  76, 66, 72 |
  36, 60,  60,  60,  60,  60,  60,  60,  60,  60,  60,  60,  0,  60,  60,  60, 52,  60, 54, 56 |
  50, 74,  74,  74,  74,  74,  74,  74,  74,  74,  74,  74, 56,   0,  74,  74, 66,  74, 66, 70 |
  50, 74,  74,  74,  74,  74,  74,  74,  74,  74,  74,  74, 56,  74,   0,  74, 66,  74, 66, 70 |
  50, 73,  73,  73,  73,  73,  73,  73,  73,  73,  73,  73, 64,  73,  73,   0, 73,  73, 73, 62 |
  64, 64,  64,  64,  64,  64,  64,  64,  64,  64,  64,  64, 88,  64,  64,  64,  0,  64, 92, 80 |
  63, 91,  91,  91,  91,  91,  91,  91,  91,  91,  91,  91, 79,  91,  91,  91, 82,   0, 63, 87 |
  55, 83,  83,  83,  83,  83,  83,  83,  83,  83,  83,  83, 71,  83,  83,  83, 55,  83,  0, 79 |
  34, 50,  50,  50,  50,  50,  50,  50,  50,  50,  50,  50, 54,  50,  50,  50, 58,  50, 58,  0
|]);

TimeWindows = array2d(1..2, 0..N, [|
     0,   0,  65, 186, 273, 342,  628,  690,  964, 1063, 2267, 2336, 2296, 2434, 2509, 2818, 3223, 3303, 3316, 3363 |
  7926, 600, 665, 786, 873, 942, 1228, 1290, 1564, 1663, 2867, 2936, 2896, 3034, 3109, 3418, 3823, 3903, 3916, 3963
|]);
